p cnf 61 108
1 2 3 4 5 0
1 2 3 -4 15 0
1 2 -3 4 7 0
1 2 -3 -4 8 0
1 -2 3 4 6 0
1 -2 3 -4 6 0
1 -2 -3 4 9 0
1 -2 -3 -4 10 0
-1 2 3 4 11 0
-1 2 3 -4 12 0
-1 2 -3 4 13 0
-1 2 -3 -4 14 0
16 17 18 1 2 3 4 19 0
16 17 18 1 2 3 -4 19 0
16 17 18 1 2 -3 4 19 0
16 17 18 1 2 -3 -4 19 0
16 17 18 1 -2 3 4 19 0
16 17 18 1 -2 3 -4 19 0
16 17 18 1 -2 -3 4 56 0
16 17 18 1 -2 -3 -4 19 0
16 17 18 -1 2 3 4 19 0
16 17 18 -1 2 3 -4 19 0
16 17 18 -1 2 -3 4 19 0
16 17 18 -1 2 -3 -4 19 0
16 17 -18 1 2 3 4 19 0
16 17 -18 1 2 3 -4 19 0
16 17 -18 1 2 -3 4 19 0
16 17 -18 1 2 -3 -4 19 0
16 17 -18 1 -2 3 4 19 0
16 17 -18 1 -2 3 -4 19 0
16 17 -18 1 -2 -3 4 56 0
16 17 -18 1 -2 -3 -4 19 0
16 17 -18 -1 2 3 4 32 0
16 17 -18 -1 2 3 -4 20 0
16 17 -18 -1 2 -3 4 19 0
16 17 -18 -1 2 -3 -4 19 0
16 -17 18 1 2 3 4 19 0
16 -17 18 1 2 3 -4 19 0
16 -17 18 1 2 -3 4 33 0
16 -17 18 1 2 -3 -4 19 0
16 -17 18 1 -2 3 4 19 0
16 -17 18 1 -2 3 -4 19 0
16 -17 18 1 -2 -3 4 19 0
16 -17 18 1 -2 -3 -4 19 0
16 -17 18 -1 2 3 4 32 0
16 -17 18 -1 2 3 -4 19 0
16 -17 18 -1 2 -3 4 21 0
16 -17 18 -1 2 -3 -4 19 0
16 -17 -18 1 2 3 4 19 0
16 -17 -18 1 2 3 -4 19 0
16 -17 -18 1 2 -3 4 22 0
16 -17 -18 1 2 -3 -4 45 0
16 -17 -18 1 -2 3 4 19 0
16 -17 -18 1 -2 3 -4 43 0
16 -17 -18 1 -2 -3 4 46 0
16 -17 -18 1 -2 -3 -4 19 0
16 -17 -18 -1 2 3 4 19 0
16 -17 -18 -1 2 3 -4 23 0
16 -17 -18 -1 2 -3 4 19 0
16 -17 -18 -1 2 -3 -4 19 0
-16 17 18 1 2 3 4 34 0
-16 17 18 1 2 3 -4 35 0
-16 17 18 1 2 -3 4 24 0
-16 17 18 1 2 -3 -4 47 0
-16 17 18 1 -2 3 4 26 0
-16 17 18 1 -2 3 -4 25 0
-16 17 18 1 -2 -3 4 48 0
-16 17 18 1 -2 -3 -4 57 0
-16 17 18 -1 2 3 4 49 0
-16 17 18 -1 2 3 -4 20 0
-16 17 18 -1 2 -3 4 19 0
-16 17 18 -1 2 -3 -4 19 0
-16 17 -18 1 2 3 4 49 0
-16 17 -18 1 2 3 -4 35 0
-16 17 -18 1 2 -3 4 36 0
-16 17 -18 1 2 -3 -4 27 0
-16 17 -18 1 -2 3 4 28 0
-16 17 -18 1 -2 3 -4 38 0
-16 17 -18 1 -2 -3 4 52 0
-16 17 -18 1 -2 -3 -4 29 0
-16 17 -18 -1 2 3 4 61 0
-16 17 -18 -1 2 3 -4 39 0
-16 17 -18 -1 2 -3 4 21 0
-16 17 -18 -1 2 -3 -4 55 0
-16 -17 18 1 2 3 4 50 0
-16 -17 18 1 2 3 -4 29 0
-16 -17 18 1 2 -3 4 53 0
-16 -17 18 1 2 -3 -4 59 0
-16 -17 18 1 -2 3 4 37 0
-16 -17 18 1 -2 3 -4 44 0
-16 -17 18 1 -2 -3 4 42 0
-16 -17 18 1 -2 -3 -4 40 0
-16 -17 18 -1 2 3 4 54 0
-16 -17 18 -1 2 3 -4 55 0
-16 -17 18 -1 2 -3 4 30 0
-16 -17 18 -1 2 -3 -4 41 0
-16 -17 -18 1 2 3 4 31 0
-16 -17 -18 1 2 3 -4 60 0
-16 -17 -18 1 2 -3 4 51 0
-16 -17 -18 1 2 -3 -4 47 0
-16 -17 -18 1 -2 3 4 58 0
-16 -17 -18 1 -2 3 -4 19 0
-16 -17 -18 1 -2 -3 4 19 0
-16 -17 -18 1 -2 -3 -4 19 0
-16 -17 -18 -1 2 3 4 32 0
-16 -17 -18 -1 2 3 -4 19 0
-16 -17 -18 -1 2 -3 4 19 0
-16 -17 -18 -1 2 -3 -4 19 0
